NAME : tsp_167_sol.txt
COMMENT : OR-Tools Guided Local Search
TYPE : TOUR
DIMENSION : 50
COST : 5508
STATUS : ROUTING_SUCCESS
GAP : 0.00% (Reference Solution)
TOUR_SECTION
1
11
22
36
21
48
14
35
18
24
47
33
37
20
10
39
4
49
8
25
41
15
32
3
23
16
38
44
2
27
40
42
50
34
31
45
9
29
46
43
17
7
13
30
19
12
5
26
6
28
-1
